
Gurobi 11.0.3 (linux64) logging started Thu Nov 21 14:54:55 2024

Set parameter LogFile to value "/home/yihong/Coding/OR_SUC/SUC_results_bigM100000_thread4/case24_ieee_rts_theta0.1_epsilon0.05_gurobi_seed230000_num_gen100_N_WDR100_load_scaling_factor1_exact_T24quadra_cost.txt"
Set parameter TimeLimit to value 3600
Gurobi Optimizer version 11.0.3 build v11.0.3rc0 (linux64 - "Ubuntu 20.04.6 LTS")

CPU model: AMD EPYC 7532 32-Core Processor, instruction set [SSE2|AVX|AVX2]
Thread count: 64 physical cores, 128 logical processors, using up to 4 threads

Optimize a model with 57659 rows, 29961 columns and 1325658 nonzeros
Model fingerprint: 0x7f65b5ba
Model has 2400 quadratic constraints
Variable types: 27461 continuous, 2500 integer (2500 binary)
Coefficient statistics:
  Matrix range     [3e-04, 1e+05]
  QMatrix range    [2e-03, 8e-03]
  QLMatrix range   [2e-01, 6e+01]
  Objective range  [1e+00, 1e+00]
  Bounds range     [1e+00, 1e+00]
  RHS range        [1e+00, 1e+05]
Presolve removed 47106 rows and 12686 columns
Presolve time: 0.38s
Presolved: 10553 rows, 17275 columns, 58659 nonzeros
Presolved model has 2400 quadratic constraint(s)
Variable types: 14779 continuous, 2496 integer (2496 binary)

Root relaxation: objective 2.826827e+04, 8312 iterations, 0.27 seconds (0.37 work units)

    Nodes    |    Current Node    |     Objective Bounds      |     Work
 Expl Unexpl |  Obj  Depth IntInf | Incumbent    BestBd   Gap | It/Node Time

     0     0 28268.2673    0   17          - 28268.2673      -     -    0s
     0     0 278136.175    0  868          - 278136.175      -     -    1s
     0     0 288627.900    0  881          - 288627.900      -     -    1s
     0     0 574469.814    0  912          - 574469.814      -     -    1s
     0     0 574999.261    0  493          - 574999.261      -     -    1s
     0     0 575568.539    0  257          - 575568.539      -     -    2s
     0     0 575572.619    0  258          - 575572.619      -     -    2s
     0     0 575572.619    0  257          - 575572.619      -     -    2s
     0     0 575573.662    0  256          - 575573.662      -     -    2s
     0     0 575574.072    0  256          - 575574.072      -     -    2s
     0     2 575574.072    0  256          - 575574.072      -     -    3s
   125   212 575670.084   38  160          - 575583.614      -  39.2    5s
H  240   295                    575670.88648 575583.614  0.02%  25.0    5s
*  240   295             104    575670.88648 575583.614  0.02%  25.1    5s

Cutting planes:
  Gomory: 14
  Implied bound: 450
  MIR: 231
  Flow cover: 564
  RLT: 1
  Relax-and-lift: 2

Explored 302 nodes (29672 simplex iterations) in 6.11 seconds (7.82 work units)
Thread count was 4 (of 128 available processors)

Solution count 2: 575671 575671 

Optimal solution found (tolerance 1.00e-03)
Warning: max constraint violation (1.9799e-07) exceeds tolerance
Best objective 5.756708864744e+05, best bound 5.755836140927e+05, gap 0.0152%
